; Copyright (c) 2026 The RIINA Authors. All rights reserved.
; Auto-generated from 02_FORMAL/coq/domains/MalaysiaBNMRMiT.v (28 validations)
; Generated by scripts/generate-full-stack.py
;
; Translation Validation for MalaysiaBNMRMiT
; Layer 9: Verifies compiler backend preserves formal semantics.
; Each assertion checks source IR ≡ target code for a proven property.

(set-logic QF_LIA)
(set-option :produce-models true)

; IR node representation
(declare-sort IRNode 0)
(declare-sort TargetNode 0)

; governance_compliant: source semantics (matches Coq)
(declare-fun source_governance_compliant () Bool)
(declare-fun target_governance_compliant () Bool)
(assert (= source_governance_compliant target_governance_compliant))

; risk_framework_established: source semantics (matches Coq)
(declare-fun source_risk_framework_established () Bool)
(declare-fun target_risk_framework_established () Bool)
(assert (= source_risk_framework_established target_risk_framework_established))

; cyber_controls_adequate: source semantics (matches Coq)
(declare-fun source_cyber_controls_adequate () Bool)
(declare-fun target_cyber_controls_adequate () Bool)
(assert (= source_cyber_controls_adequate target_cyber_controls_adequate))

; ops_resilience_verified: source semantics (matches Coq)
(declare-fun source_ops_resilience_verified () Bool)
(declare-fun target_ops_resilience_verified () Bool)
(assert (= source_ops_resilience_verified target_ops_resilience_verified))

; audit_compliant: source semantics (matches Coq)
(declare-fun source_audit_compliant () Bool)
(declare-fun target_audit_compliant () Bool)
(assert (= source_audit_compliant target_audit_compliant))

; cloud_compliant: source semantics (matches Coq)
(declare-fun source_cloud_compliant () Bool)
(declare-fun target_cloud_compliant () Bool)
(assert (= source_cloud_compliant target_cloud_compliant))

; third_party_compliant: source semantics (matches Coq)
(declare-fun source_third_party_compliant () Bool)
(declare-fun target_third_party_compliant () Bool)
(assert (= source_third_party_compliant target_third_party_compliant))

; bcp_compliant: source semantics (matches Coq)
(declare-fun source_bcp_compliant () Bool)
(declare-fun target_bcp_compliant () Bool)
(assert (= source_bcp_compliant target_bcp_compliant))

; rmit_fully_compliant: source semantics (matches Coq)
(declare-fun source_rmit_fully_compliant () Bool)
(declare-fun target_rmit_fully_compliant () Bool)
(assert (= source_rmit_fully_compliant target_rmit_fully_compliant))

; bnm_incident_deadline: source semantics (matches Coq)
(declare-fun source_bnm_incident_deadline () Bool)
(declare-fun target_bnm_incident_deadline () Bool)
(assert (= source_bnm_incident_deadline target_bnm_incident_deadline))

; bnm_incident_reported_timely: source semantics (matches Coq)
(declare-fun source_bnm_incident_reported_timely () Bool)
(declare-fun target_bnm_incident_reported_timely () Bool)
(assert (= source_bnm_incident_reported_timely target_bnm_incident_reported_timely))

; outsourcing_compliant: source semantics (matches Coq)
(declare-fun source_outsourcing_compliant () Bool)
(declare-fun target_outsourcing_compliant () Bool)
(assert (= source_outsourcing_compliant target_outsourcing_compliant))

; tech_refresh_current: source semantics (matches Coq)
(declare-fun source_tech_refresh_current () Bool)
(declare-fun target_tech_refresh_current () Bool)
(assert (= source_tech_refresh_current target_tech_refresh_current))

; rmit_domain_1: translation preserves property (matches Coq: Theorem)
(declare-fun source_rmit_domain_1 () Bool)
(declare-fun target_rmit_domain_1 () Bool)
(assert (= source_rmit_domain_1 target_rmit_domain_1))

; rmit_domain_2: translation preserves property (matches Coq: Theorem)
(declare-fun source_rmit_domain_2 () Bool)
(declare-fun target_rmit_domain_2 () Bool)
(assert (= source_rmit_domain_2 target_rmit_domain_2))

; rmit_domain_3: translation preserves property (matches Coq: Theorem)
(declare-fun source_rmit_domain_3 () Bool)
(declare-fun target_rmit_domain_3 () Bool)
(assert (= source_rmit_domain_3 target_rmit_domain_3))

; rmit_domain_4: translation preserves property (matches Coq: Theorem)
(declare-fun source_rmit_domain_4 () Bool)
(declare-fun target_rmit_domain_4 () Bool)
(assert (= source_rmit_domain_4 target_rmit_domain_4))

; rmit_domain_5: translation preserves property (matches Coq: Theorem)
(declare-fun source_rmit_domain_5 () Bool)
(declare-fun target_rmit_domain_5 () Bool)
(assert (= source_rmit_domain_5 target_rmit_domain_5))

; rmit_domain_6_onprem: translation preserves property (matches Coq: Theorem)
(declare-fun source_rmit_domain_6_onprem () Bool)
(declare-fun target_rmit_domain_6_onprem () Bool)
(assert (= source_rmit_domain_6_onprem target_rmit_domain_6_onprem))

; rmit_domain_6_cloud: translation preserves property (matches Coq: Theorem)
(declare-fun source_rmit_domain_6_cloud () Bool)
(declare-fun target_rmit_domain_6_cloud () Bool)
(assert (= source_rmit_domain_6_cloud target_rmit_domain_6_cloud))

; rmit_domain_7: translation preserves property (matches Coq: Theorem)
(declare-fun source_rmit_domain_7 () Bool)
(declare-fun target_rmit_domain_7 () Bool)
(assert (= source_rmit_domain_7 target_rmit_domain_7))

; rmit_domain_8: translation preserves property (matches Coq: Theorem)
(declare-fun source_rmit_domain_8 () Bool)
(declare-fun target_rmit_domain_8 () Bool)
(assert (= source_rmit_domain_8 target_rmit_domain_8))

; rmit_composition: translation preserves property (matches Coq: Theorem)
(declare-fun source_rmit_composition () Bool)
(declare-fun target_rmit_composition () Bool)
(assert (= source_rmit_composition target_rmit_composition))

; fi_type_coverage: translation preserves property (matches Coq: Theorem)
(declare-fun source_fi_type_coverage () Bool)
(declare-fun target_fi_type_coverage () Bool)
(assert (= source_fi_type_coverage target_fi_type_coverage))

; cyber_controls_strengthened: translation preserves property (matches Coq: Theorem)
(declare-fun source_cyber_controls_strengthened () Bool)
(declare-fun target_cyber_controls_strengthened () Bool)
(assert (= source_cyber_controls_strengthened target_cyber_controls_strengthened))

; cloud_deployment_coverage: translation preserves property (matches Coq: Theorem)
(declare-fun source_cloud_deployment_coverage () Bool)
(declare-fun target_cloud_deployment_coverage () Bool)
(assert (= source_cloud_deployment_coverage target_cloud_deployment_coverage))

; on_premise_always_compliant: translation preserves property (matches Coq: Theorem)
(declare-fun source_on_premise_always_compliant () Bool)
(declare-fun target_on_premise_always_compliant () Bool)
(assert (= source_on_premise_always_compliant target_on_premise_always_compliant))

; rmit_full_implies_governance: translation preserves property (matches Coq: Theorem)
(declare-fun source_rmit_full_implies_governance () Bool)
(declare-fun target_rmit_full_implies_governance () Bool)
(assert (= source_rmit_full_implies_governance target_rmit_full_implies_governance))

; rmit_full_implies_risk: translation preserves property (matches Coq: Theorem)
(declare-fun source_rmit_full_implies_risk () Bool)
(declare-fun target_rmit_full_implies_risk () Bool)
(assert (= source_rmit_full_implies_risk target_rmit_full_implies_risk))

; rmit_full_implies_cyber: translation preserves property (matches Coq: Theorem)
(declare-fun source_rmit_full_implies_cyber () Bool)
(declare-fun target_rmit_full_implies_cyber () Bool)
(assert (= source_rmit_full_implies_cyber target_rmit_full_implies_cyber))

; rmit_full_implies_ops: translation preserves property (matches Coq: Theorem)
(declare-fun source_rmit_full_implies_ops () Bool)
(declare-fun target_rmit_full_implies_ops () Bool)
(assert (= source_rmit_full_implies_ops target_rmit_full_implies_ops))

; rmit_full_implies_audit: translation preserves property (matches Coq: Theorem)
(declare-fun source_rmit_full_implies_audit () Bool)
(declare-fun target_rmit_full_implies_audit () Bool)
(assert (= source_rmit_full_implies_audit target_rmit_full_implies_audit))

; rmit_full_implies_cloud: translation preserves property (matches Coq: Theorem)
(declare-fun source_rmit_full_implies_cloud () Bool)
(declare-fun target_rmit_full_implies_cloud () Bool)
(assert (= source_rmit_full_implies_cloud target_rmit_full_implies_cloud))

; rmit_full_implies_third_party: translation preserves property (matches Coq: Theorem)
(declare-fun source_rmit_full_implies_third_party () Bool)
(declare-fun target_rmit_full_implies_third_party () Bool)
(assert (= source_rmit_full_implies_third_party target_rmit_full_implies_third_party))

; rmit_full_implies_bcp: translation preserves property (matches Coq: Theorem)
(declare-fun source_rmit_full_implies_bcp () Bool)
(declare-fun target_rmit_full_implies_bcp () Bool)
(assert (= source_rmit_full_implies_bcp target_rmit_full_implies_bcp))

; bnm_incident_reporting: translation preserves property (matches Coq: Theorem)
(declare-fun source_bnm_incident_reporting () Bool)
(declare-fun target_bnm_incident_reporting () Bool)
(assert (= source_bnm_incident_reporting target_bnm_incident_reporting))

; bnm_late_incident_violation: translation preserves property (matches Coq: Theorem)
(declare-fun source_bnm_late_incident_violation () Bool)
(declare-fun target_bnm_late_incident_violation () Bool)
(assert (= source_bnm_late_incident_violation target_bnm_late_incident_violation))

; outsourcing_risk_managed: translation preserves property (matches Coq: Theorem)
(declare-fun source_outsourcing_risk_managed () Bool)
(declare-fun target_outsourcing_risk_managed () Bool)
(assert (= source_outsourcing_risk_managed target_outsourcing_risk_managed))

; non_material_no_notification: translation preserves property (matches Coq: Theorem)
(declare-fun source_non_material_no_notification () Bool)
(declare-fun target_non_material_no_notification () Bool)
(assert (= source_non_material_no_notification target_non_material_no_notification))

; tech_refresh_valid: translation preserves property (matches Coq: Theorem)
(declare-fun source_tech_refresh_valid () Bool)
(declare-fun target_tech_refresh_valid () Bool)
(assert (= source_tech_refresh_valid target_tech_refresh_valid))

; tech_refresh_expired: translation preserves property (matches Coq: Theorem)
(declare-fun source_tech_refresh_expired () Bool)
(declare-fun target_tech_refresh_expired () Bool)
(assert (= source_tech_refresh_expired target_tech_refresh_expired))

; Verify all translation validations are satisfiable
(check-sat)
(exit)
